NAME : X-n289-k60
COMMENT : "Generated by Uchoa, Pecin, Pessoa, Poggi, Subramanian, and Vidal (2013)"
TYPE : CVRP
DIMENSION : 289
EDGE_WEIGHT_TYPE : EUC_2D
CAPACITY : 267
NODE_COORD_SECTION
1 0 0
2 174 325
3 49 34
4 543 815
5 42 920
6 545 80
7 681 950
8 870 118
9 787 220
10 537 927
11 180 838
12 543 582
13 442 620
14 747 569
15 932 48
16 14 356
17 53 476
18 603 228
19 772 573
20 811 359
21 373 37
22 859 142
23 489 543
24 37 771
25 354 944
26 96 62
27 326 729
28 881 541
29 653 724
30 226 759
31 481 44
32 100 882
33 129 299
34 989 512
35 600 42
36 538 772
37 346 479
38 448 624
39 286 417
40 612 457
41 70 468
42 502 909
43 595 503
44 819 948
45 771 355
46 372 196
47 535 775
48 232 518
49 119 626
50 110 835
51 567 348
52 6 211
53 493 652
54 96 183
55 105 479
56 873 333
57 468 199
58 536 120
59 17 65
60 638 958
61 328 921
62 968 540
63 125 145
64 692 422
65 557 864
66 752 850
67 703 395
68 498 832
69 343 962
70 583 474
71 976 636
72 101 555
73 77 544
74 981 353
75 625 324
76 622 728
77 855 827
78 792 443
79 283 63
80 760 751
81 972 417
82 694 214
83 38 91
84 294 791
85 429 815
86 691 154
87 930 792
88 579 279
89 431 909
90 615 264
91 448 185
92 49 414
93 883 478
94 627 564
95 40 434
96 718 660
97 896 694
98 716 586
99 607 343
100 675 244
101 282 617
102 199 880
103 998 855
104 588 662
105 58 700
106 221 510
107 518 554
108 203 173
109 944 282
110 254 558
111 428 165
112 848 305
113 860 100
114 602 620
115 437 55
116 922 348
117 433 776
118 891 306
119 211 731
120 408 859
121 492 322
122 581 746
123 868 337
124 365 161
125 568 646
126 456 81
127 477 162
128 429 844
129 396 41
130 130 972
131 563 135
132 317 258
133 414 696
134 547 90
135 602 325
136 321 27
137 263 184
138 474 629
139 526 440
140 814 534
141 287 975
142 11 791
143 217 331
144 745 430
145 34 925
146 84 298
147 12 489
148 140 132
149 755 784
150 948 889
151 201 545
152 609 322
153 880 525
154 649 744
155 643 684
156 769 790
157 319 178
158 731 709
159 787 828
160 225 726
161 596 265
162 634 256
163 663 359
164 166 640
165 642 362
166 520 270
167 42 480
168 112 399
169 150 168
170 82 292
171 122 330
172 127 502
173 775 687
174 13 620
175 634 888
176 68 320
177 982 753
178 224 537
179 841 798
180 174 366
181 24 40
182 145 248
183 419 444
184 879 792
185 929 876
186 123 355
187 986 847
188 948 915
189 875 393
190 117 315
191 662 329
192 34 517
193 73 159
194 80 288
195 152 615
196 192 202
197 881 867
198 766 781
199 660 798
200 184 487
201 706 738
202 75 367
203 192 700
204 277 151
205 9 455
206 605 301
207 102 332
208 193 612
209 606 304
210 50 417
211 61 343
212 80 515
213 79 416
214 257 315
215 215 135
216 904 911
217 892 734
218 130 120
219 91 213
220 679 826
221 634 319
222 698 259
223 664 283
224 316 692
225 159 590
226 768 627
227 583 308
228 552 300
229 890 942
230 921 841
231 884 682
232 28 627
233 846 789
234 141 84
235 151 452
236 651 231
237 593 205
238 126 511
239 998 988
240 53 418
241 126 279
242 65 479
243 217 664
244 916 983
245 465 504
246 11 435
247 328 87
248 341 495
249 167 100
250 75 221
251 12 139
252 712 863
253 854 920
254 95 312
255 65 272
256 0 426
257 700 806
258 36 551
259 200 578
260 572 402
261 695 326
262 811 730
263 957 880
264 194 131
265 120 604
266 998 976
267 736 914
268 252 343
269 653 922
270 726 784
271 171 218
272 188 452
273 170 515
274 932 944
275 594 876
276 169 35
277 149 580
278 758 826
279 69 12
280 878 954
281 728 812
282 141 498
283 149 103
284 671 370
285 467 248
286 256 559
287 115 233
288 605 283
289 880 764
PICKUP_AND_DELIVERY_SECTION
1 0 0 1000000000 0 0 0
2 0 0 1000000000 0 0 73
3 0 0 1000000000 0 0 71
4 0 0 1000000000 0 0 59
5 0 0 1000000000 0 0 29
6 0 0 1000000000 0 0 19
7 0 0 1000000000 0 0 79
8 0 0 1000000000 0 0 27
9 0 0 1000000000 0 0 13
10 0 0 1000000000 0 0 77
11 0 0 1000000000 0 21 0
12 0 0 1000000000 0 0 99
13 0 0 1000000000 0 0 24
14 0 0 1000000000 0 0 71
15 0 0 1000000000 0 0 38
16 0 0 1000000000 0 0 59
17 0 0 1000000000 0 0 56
18 0 0 1000000000 0 0 41
19 0 0 1000000000 0 0 87
20 0 0 1000000000 0 0 28
21 0 0 1000000000 0 81 0
22 0 0 1000000000 0 0 18
23 0 0 1000000000 0 0 49
24 0 0 1000000000 0 0 28
25 0 0 1000000000 0 0 35
26 0 0 1000000000 0 0 86
27 0 0 1000000000 0 0 40
28 0 0 1000000000 0 0 89
29 0 0 1000000000 0 0 75
30 0 0 1000000000 0 0 25
31 0 0 1000000000 0 56 0
32 0 0 1000000000 0 0 43
33 0 0 1000000000 0 0 57
34 0 0 1000000000 0 0 88
35 0 0 1000000000 0 0 37
36 0 0 1000000000 0 0 88
37 0 0 1000000000 0 0 76
38 0 0 1000000000 0 0 37
39 0 0 1000000000 0 0 67
40 0 0 1000000000 0 0 3
41 0 0 1000000000 0 64 0
42 0 0 1000000000 0 0 53
43 0 0 1000000000 0 0 72
44 0 0 1000000000 0 0 55
45 0 0 1000000000 0 0 22
46 0 0 1000000000 0 0 56
47 0 0 1000000000 0 0 51
48 0 0 1000000000 0 0 30
49 0 0 1000000000 0 0 15
50 0 0 1000000000 0 0 1
51 0 0 1000000000 0 46 0
52 0 0 1000000000 0 0 78
53 0 0 1000000000 0 0 18
54 0 0 1000000000 0 0 62
55 0 0 1000000000 0 0 100
56 0 0 1000000000 0 0 43
57 0 0 1000000000 0 0 87
58 0 0 1000000000 0 0 4
59 0 0 1000000000 0 0 71
60 0 0 1000000000 0 0 87
61 0 0 1000000000 0 36 0
62 0 0 1000000000 0 0 77
63 0 0 1000000000 0 0 61
64 0 0 1000000000 0 0 5
65 0 0 1000000000 0 0 96
66 0 0 1000000000 0 0 82
67 0 0 1000000000 0 0 22
68 0 0 1000000000 0 0 33
69 0 0 1000000000 0 0 30
70 0 0 1000000000 0 0 32
71 0 0 1000000000 0 88 0
72 0 0 1000000000 0 0 5
73 0 0 1000000000 0 0 47
74 0 0 1000000000 0 0 47
75 0 0 1000000000 0 0 28
76 0 0 1000000000 0 0 65
77 0 0 1000000000 0 0 77
78 0 0 1000000000 0 0 13
79 0 0 1000000000 0 0 57
80 0 0 1000000000 0 0 52
81 0 0 1000000000 0 36 0
82 0 0 1000000000 0 0 24
83 0 0 1000000000 0 0 78
84 0 0 1000000000 0 0 17
85 0 0 1000000000 0 0 12
86 0 0 1000000000 0 0 50
87 0 0 1000000000 0 0 70
88 0 0 1000000000 0 0 45
89 0 0 1000000000 0 0 41
90 0 0 1000000000 0 0 11
91 0 0 1000000000 0 51 0
92 0 0 1000000000 0 0 54
93 0 0 1000000000 0 0 14
94 0 0 1000000000 0 0 70
95 0 0 1000000000 0 0 76
96 0 0 1000000000 0 0 57
97 0 0 1000000000 0 0 59
98 0 0 1000000000 0 0 100
99 0 0 1000000000 0 0 7
100 0 0 1000000000 0 0 10
101 0 0 1000000000 0 23 0
102 0 0 1000000000 0 0 25
103 0 0 1000000000 0 0 65
104 0 0 1000000000 0 0 70
105 0 0 1000000000 0 0 2
106 0 0 1000000000 0 0 25
107 0 0 1000000000 0 0 91
108 0 0 1000000000 0 0 86
109 0 0 1000000000 0 0 48
110 0 0 1000000000 0 0 24
111 0 0 1000000000 0 94 0
112 0 0 1000000000 0 0 7
113 0 0 1000000000 0 0 19
114 0 0 1000000000 0 0 97
115 0 0 1000000000 0 0 79
116 0 0 1000000000 0 0 15
117 0 0 1000000000 0 0 23
118 0 0 1000000000 0 0 43
119 0 0 1000000000 0 0 11
120 0 0 1000000000 0 0 44
121 0 0 1000000000 0 92 0
122 0 0 1000000000 0 0 77
123 0 0 1000000000 0 0 26
124 0 0 1000000000 0 0 83
125 0 0 1000000000 0 0 80
126 0 0 1000000000 0 0 86
127 0 0 1000000000 0 0 97
128 0 0 1000000000 0 0 12
129 0 0 1000000000 0 0 71
130 0 0 1000000000 0 0 24
131 0 0 1000000000 0 49 0
132 0 0 1000000000 0 0 52
133 0 0 1000000000 0 0 37
134 0 0 1000000000 0 0 4
135 0 0 1000000000 0 0 41
136 0 0 1000000000 0 0 99
137 0 0 1000000000 0 0 97
138 0 0 1000000000 0 0 20
139 0 0 1000000000 0 0 32
140 0 0 1000000000 0 0 51
141 0 0 1000000000 0 13 0
142 0 0 1000000000 0 0 3
143 0 0 1000000000 0 0 64
144 0 0 1000000000 0 0 24
145 0 0 1000000000 0 0 21
146 0 0 1000000000 0 0 83
147 0 0 1000000000 0 0 51
148 0 0 1000000000 0 0 77
149 0 0 1000000000 0 0 79
150 0 0 1000000000 0 0 96
151 0 0 1000000000 0 36 0
152 0 0 1000000000 0 0 4
153 0 0 1000000000 0 0 84
154 0 0 1000000000 0 0 83
155 0 0 1000000000 0 0 60
156 0 0 1000000000 0 0 93
157 0 0 1000000000 0 0 57
158 0 0 1000000000 0 0 98
159 0 0 1000000000 0 0 81
160 0 0 1000000000 0 0 18
161 0 0 1000000000 0 42 0
162 0 0 1000000000 0 0 14
163 0 0 1000000000 0 0 22
164 0 0 1000000000 0 0 1
165 0 0 1000000000 0 0 42
166 0 0 1000000000 0 0 32
167 0 0 1000000000 0 0 85
168 0 0 1000000000 0 0 60
169 0 0 1000000000 0 0 76
170 0 0 1000000000 0 0 94
171 0 0 1000000000 0 100 0
172 0 0 1000000000 0 0 46
173 0 0 1000000000 0 0 76
174 0 0 1000000000 0 0 6
175 0 0 1000000000 0 0 79
176 0 0 1000000000 0 0 71
177 0 0 1000000000 0 0 82
178 0 0 1000000000 0 0 43
179 0 0 1000000000 0 0 67
180 0 0 1000000000 0 0 62
181 0 0 1000000000 0 55 0
182 0 0 1000000000 0 0 57
183 0 0 1000000000 0 0 83
184 0 0 1000000000 0 0 92
185 0 0 1000000000 0 0 90
186 0 0 1000000000 0 0 70
187 0 0 1000000000 0 0 53
188 0 0 1000000000 0 0 85
189 0 0 1000000000 0 0 42
190 0 0 1000000000 0 0 78
191 0 0 1000000000 0 37 0
192 0 0 1000000000 0 0 42
193 0 0 1000000000 0 0 85
194 0 0 1000000000 0 0 64
195 0 0 1000000000 0 0 34
196 0 0 1000000000 0 0 87
197 0 0 1000000000 0 0 84
198 0 0 1000000000 0 0 100
199 0 0 1000000000 0 0 60
200 0 0 1000000000 0 0 52
201 0 0 1000000000 0 89 0
202 0 0 1000000000 0 0 66
203 0 0 1000000000 0 0 27
204 0 0 1000000000 0 0 64
205 0 0 1000000000 0 0 92
206 0 0 1000000000 0 0 36
207 0 0 1000000000 0 0 79
208 0 0 1000000000 0 0 37
209 0 0 1000000000 0 0 49
210 0 0 1000000000 0 0 99
211 0 0 1000000000 0 89 0
212 0 0 1000000000 0 0 39
213 0 0 1000000000 0 0 60
214 0 0 1000000000 0 0 83
215 0 0 1000000000 0 0 54
216 0 0 1000000000 0 0 62
217 0 0 1000000000 0 0 70
218 0 0 1000000000 0 0 83
219 0 0 1000000000 0 0 72
220 0 0 1000000000 0 0 55
221 0 0 1000000000 0 14 0
222 0 0 1000000000 0 0 48
223 0 0 1000000000 0 0 46
224 0 0 1000000000 0 0 48
225 0 0 1000000000 0 0 11
226 0 0 1000000000 0 0 60
227 0 0 1000000000 0 0 36
228 0 0 1000000000 0 0 19
229 0 0 1000000000 0 0 100
230 0 0 1000000000 0 0 96
231 0 0 1000000000 0 98 0
232 0 0 1000000000 0 0 4
233 0 0 1000000000 0 0 87
234 0 0 1000000000 0 0 83
235 0 0 1000000000 0 0 100
236 0 0 1000000000 0 0 44
237 0 0 1000000000 0 0 9
238 0 0 1000000000 0 0 31
239 0 0 1000000000 0 0 79
240 0 0 1000000000 0 0 53
241 0 0 1000000000 0 80 0
242 0 0 1000000000 0 0 93
243 0 0 1000000000 0 0 37
244 0 0 1000000000 0 0 74
245 0 0 1000000000 0 0 25
246 0 0 1000000000 0 0 71
247 0 0 1000000000 0 0 60
248 0 0 1000000000 0 0 94
249 0 0 1000000000 0 0 60
250 0 0 1000000000 0 0 85
251 0 0 1000000000 0 67 0
252 0 0 1000000000 0 0 84
253 0 0 1000000000 0 0 96
254 0 0 1000000000 0 0 77
255 0 0 1000000000 0 0 88
256 0 0 1000000000 0 0 84
257 0 0 1000000000 0 0 75
258 0 0 1000000000 0 0 27
259 0 0 1000000000 0 0 6
260 0 0 1000000000 0 0 15
261 0 0 1000000000 0 11 0
262 0 0 1000000000 0 0 81
263 0 0 1000000000 0 0 62
264 0 0 1000000000 0 0 63
265 0 0 1000000000 0 0 42
266 0 0 1000000000 0 0 55
267 0 0 1000000000 0 0 66
268 0 0 1000000000 0 0 82
269 0 0 1000000000 0 0 75
270 0 0 1000000000 0 0 87
271 0 0 1000000000 0 79 0
272 0 0 1000000000 0 0 70
273 0 0 1000000000 0 0 39
274 0 0 1000000000 0 0 85
275 0 0 1000000000 0 0 64
276 0 0 1000000000 0 0 89
277 0 0 1000000000 0 0 12
278 0 0 1000000000 0 0 71
279 0 0 1000000000 0 0 77
280 0 0 1000000000 0 0 54
281 0 0 1000000000 0 74 0
282 0 0 1000000000 0 0 60
283 0 0 1000000000 0 0 79
284 0 0 1000000000 0 0 45
285 0 0 1000000000 0 0 70
286 0 0 1000000000 0 0 24
287 0 0 1000000000 0 0 60
288 0 0 1000000000 0 0 37
289 0 0 1000000000 0 0 97
